Casos de prueba/Caso3.txt
15
3
6,3,6
0.30,0.50,0.95
0,4,2
1,1,1
0,3,3
10
3
